
pair_coeff 1 1 lj/charmm/coul/charmm 0.091411522 3.95
pair_coeff 2 2 lj/charmm/coul/charmm 0.194746286 3.75
pair_coeff 3 3 lj/charmm/coul/charmm 0.294106636 3.73
bond_coeff     1    harmonic   120.0   1.54
angle_coeff    1    harmonic   62.0022 114 
dihedral_coeff 1 opls 1.411036 -0.271016 3.145034 0.0 
group TraPPE type 1 2 3 

pair_coeff 4 4 lj/charmm/coul/charmm 0.4610313512 3.62
pair_coeff 5 5 lj/charmm/coul/charmm 0.0 0.0 
bond_coeff     2   harmonic   120.0   1.82
bond_coeff     3    harmonic   120.0   1.34
angle_coeff    2        harmonic   62.0022 114.0
angle_coeff    3        harmonic   33.6135 96.0
dihedral_coeff 2 opls -0.20686795 0.0733675754 1.2175996962 0.0    
                